RT is False
Default write of storage_offers_DA.csv just to have a file (but constraint should be inactive)
Reading model...
...model read.
creating competitive generators file...
...competitive generators recorded.
Loading data...
.. day-ahead data read.
Compiling instance...
...instance created.
Creating Offer Mitigation (model will solve as dispatch if TRUE)...
NOTE: storage offers will not be mitigated
...storage offer mitigation file created
Converting model to MPEC...
...converted
NOTE: initial MIP solve with only storage competitive to get feasible solution
Solving...

Welcome to IBM(R) ILOG(R) CPLEX(R) Interactive Optimizer 12.9.0.0
  with Simplex, Mixed Integer & Barrier Optimizers
5725-A06 5725-A29 5724-Y48 5724-Y49 5724-Y54 5724-Y55 5655-Y21
Copyright IBM Corp. 1988, 2019.  All Rights Reserved.

Type 'help' for a list of available commands.
Type 'help' followed by a command name for more
information on commands.

CPLEX> Logfile 'cplex.log' closed.
Logfile 'C:\Users\llavin\Desktop\test919\logs\tmp3ajd8gf8.cplex.log' open.
CPLEX> New value for parallel optimization mode: -1
CPLEX> New value for mixed integer optimality gap tolerance: 0.01
CPLEX> New value for integrality tolerance: 1e-09
CPLEX> New value for feasibility tolerance: 0.01
CPLEX> New value for deterministic time limit in ticks: 75000
CPLEX> Problem 'C:\Users\llavin\Desktop\test919\logs\tmphd_ibhud.pyomo.lp' read.
Read time = 0.23 sec. (14.73 ticks)
CPLEX> Problem name         : C:\Users\llavin\Desktop\test919\logs\tmphd_ibhud.pyomo.lp
Objective sense      : Maximize
Variables            :   53805  [Nneg: 1,  Box: 22000,  Free: 4464,
                                 Binary: 27340]
Objective nonzeros   :    9109
Linear constraints   :  123205  [Less: 41346,  Greater: 59096,  Equal: 22763]
  Nonzeros           :  291833
  RHS nonzeros       :   67571

Variables            : Min LB: -5000.000        Max UB: 1000000.       
Objective nonzeros   : Min   : 0.1000000        Max   : 2500.000       
Linear constraints   :
  Nonzeros           : Min   : 0.1000000        Max   : 1000000.       
  RHS nonzeros       : Min   : 0.1000000        Max   : 1000000.       
CPLEX> CPXPARAM_Parallel                                -1
CPXPARAM_Simplex_Tolerances_Feasibility          0.01
CPXPARAM_DetTimeLimit                            75000
CPXPARAM_MIP_Tolerances_MIPGap                   0.01
CPXPARAM_MIP_Tolerances_Integrality              1.0000000000000001e-09
Tried aggregator 3 times.
MIP Presolve eliminated 88296 rows and 18698 columns.
MIP Presolve added 3457 rows and 0 columns.
MIP Presolve modified 24962 coefficients.
Aggregator did 12966 substitutions.
Reduced MIP has 25400 rows, 21663 columns, and 72231 nonzeros.
Reduced MIP has 8563 binaries, 0 generals, 0 SOSs, and 0 indicators.
Presolve time = 0.30 sec. (174.10 ticks)
Probing fixed 397 vars, tightened 2912 bounds.
Probing time = 1.22 sec. (896.84 ticks)
Tried aggregator 2 times.
MIP Presolve eliminated 895 rows and 795 columns.
MIP Presolve modified 2293 coefficients.
Aggregator did 42 substitutions.
Reduced MIP has 24463 rows, 20826 columns, and 69515 nonzeros.
Reduced MIP has 8166 binaries, 0 generals, 0 SOSs, and 0 indicators.
Presolve time = 0.11 sec. (75.18 ticks)
Probing time = 0.05 sec. (16.68 ticks)
Clique table members: 6354.
MIP emphasis: balance optimality and feasibility.
MIP search method: dynamic search.
Parallel mode: opportunistic, using up to 32 threads.
Root relaxation solution time = 0.48 sec. (358.92 ticks)

        Nodes                                         Cuts/
   Node  Left     Objective  IInf  Best Integer    Best Bound    ItCnt     Gap

      0     0     4027.5682  2101                   4027.5682     8109         
      0     2     4027.5682     1                   4027.5682     8109         
Elapsed time = 10.13 sec. (5981.52 ticks, tree = 0.02 MB, solutions = 1)
*     2     2      integral     0     4027.5682     4027.5682     8109    0.00%

Root node processing (before b&c):
  Real time             =    9.42 sec. (5949.42 ticks)
Parallel b&c, 32 threads:
  Real time             =    0.86 sec. (99.22 ticks)
  Sync time (average)   =    0.14 sec.
  Wait time (average)   =    0.00 sec.
                          ------------
Total (root+branch&cut) =   10.28 sec. (6048.64 ticks)

Solution pool: 1 solution saved.

MIP - Integer optimal solution:  Objective =  4.0275682320e+03
Solution time =   10.31 sec.  Iterations = 8115  Nodes = 5
Deterministic time = 6048.79 ticks  (586.58 ticks/sec)

CPLEX> Incumbent solution written to file 'C:\Users\llavin\Desktop\test919\logs\tmppn_cid5w.cplex.sol'.
CPLEX> NOTE: no warmstart specified for MIP iteration, default behavior is true
NOTE: resolving with all competitive generators using storage-only solution to warmstart
Solving...

Welcome to IBM(R) ILOG(R) CPLEX(R) Interactive Optimizer 12.9.0.0
  with Simplex, Mixed Integer & Barrier Optimizers
5725-A06 5725-A29 5724-Y48 5724-Y49 5724-Y54 5724-Y55 5655-Y21
Copyright IBM Corp. 1988, 2019.  All Rights Reserved.

Type 'help' for a list of available commands.
Type 'help' followed by a command name for more
information on commands.

CPLEX> Logfile 'cplex.log' closed.
Logfile 'C:\Users\llavin\Desktop\test919\logs\tmpu7p_r0xg.cplex.log' open.
CPLEX> New value for parallel optimization mode: -1
CPLEX> New value for mixed integer optimality gap tolerance: 0.01
CPLEX> New value for integrality tolerance: 1e-09
CPLEX> New value for feasibility tolerance: 0.01
CPLEX> New value for deterministic time limit in ticks: 75000
CPLEX> Problem 'C:\Users\llavin\Desktop\test919\logs\tmpopsgnyak.pyomo.lp' read.
Read time = 0.23 sec. (14.75 ticks)
CPLEX> MIP start file 'C:\Users\llavin\Desktop\test919\logs\tmp1ebbvqqp.cplex.mst' read.
CPLEX> Problem name         : C:\Users\llavin\Desktop\test919\logs\tmpopsgnyak.pyomo.lp
Objective sense      : Maximize
Variables            :   54525  [Nneg: 1,  Box: 22720,  Free: 4464,
                                 Binary: 27340]
Objective nonzeros   :    9807
Linear constraints   :  123205  [Less: 41346,  Greater: 59096,  Equal: 22763]
  Nonzeros           :  291833
  RHS nonzeros       :   67571

Variables            : Min LB: -5000.000        Max UB: 1000000.       
Objective nonzeros   : Min   : 0.1000000        Max   : 2500.000       
Linear constraints   :
  Nonzeros           : Min   : 0.1000000        Max   : 1000000.       
  RHS nonzeros       : Min   : 0.1000000        Max   : 1000000.       
CPLEX> CPXPARAM_Parallel                                -1
CPXPARAM_Simplex_Tolerances_Feasibility          0.01
CPXPARAM_DetTimeLimit                            75000
CPXPARAM_MIP_Tolerances_MIPGap                   0.01
CPXPARAM_MIP_Tolerances_Integrality              1.0000000000000001e-09
Warning:  No solution found from 1 MIP starts.
Retaining values of one MIP start for possible repair.
Tried aggregator 3 times.
MIP Presolve eliminated 88296 rows and 19418 columns.
MIP Presolve added 3457 rows and 0 columns.
MIP Presolve modified 24962 coefficients.
Aggregator did 12966 substitutions.
Reduced MIP has 25400 rows, 21663 columns, and 72231 nonzeros.
Reduced MIP has 8563 binaries, 0 generals, 0 SOSs, and 0 indicators.
Presolve time = 0.30 sec. (174.46 ticks)
Probing fixed 397 vars, tightened 2912 bounds.
Probing time = 1.20 sec. (896.84 ticks)
Tried aggregator 2 times.
MIP Presolve eliminated 895 rows and 795 columns.
MIP Presolve modified 2293 coefficients.
Aggregator did 42 substitutions.
Reduced MIP has 24463 rows, 20826 columns, and 69515 nonzeros.
Reduced MIP has 8166 binaries, 0 generals, 0 SOSs, and 0 indicators.
Presolve time = 0.11 sec. (75.18 ticks)
Probing time = 0.03 sec. (16.68 ticks)
Clique table members: 6354.
MIP emphasis: balance optimality and feasibility.
MIP search method: dynamic search.
Parallel mode: opportunistic, using up to 32 threads.
Root relaxation solution time = 0.48 sec. (364.97 ticks)

        Nodes                                         Cuts/
   Node  Left     Objective  IInf  Best Integer    Best Bound    ItCnt     Gap

      0     0    46094.9006  2115                  46094.9006     8426         
      0     0    43962.5791   733                   Cuts: 748     8815         
      0     0    43839.4158   608                   Cuts: 426     8997         
      0     0    43797.3008   552                   Cuts: 216     9076         
      0     0    43797.3008   546                    Cuts: 90     9085         
      0     0    43797.3008   543                    Cuts: 70     9091         
      0     0    43797.3008   543                    Cuts: 74     9092         
Repair heuristic found nothing.
      0     8    infeasible                          Cuts: 10     9146         
Elapsed time = 12.38 sec. (7383.05 ticks, tree = 0.02 MB, solutions = 0)
    499   133    25286.9498   509                  43387.2554    13996         
    816   274    22753.9619   497                  43387.2554    16529         
   1367   856    15501.0319   479                  43387.2554    34365         
   1989  1101   -42661.1073   489                  43387.2554    45499         
   2737  1617    11631.7275   381                  43387.2554    50123         
   3760  2271     3634.4820   355                  43387.2554    53505         
   4809  3038    13389.8887   340                  43387.2554    54985         
   5817  5188    24686.4203   373                  43387.2554    58603         
   6888  5615    22971.6005   381                  43387.2554    59887         
  11555  9225  -132455.8892   331                  43387.2554    62841         
Elapsed time = 29.75 sec. (10486.78 ticks, tree = 121.19 MB, solutions = 0)
* 11925+ 5803                         6890.7366    43387.2554           529.65%
* 13454 10119      integral     0    12088.3315    42372.2797    63336  250.52%
  14228  5436    20789.0791    93    12088.3315    36803.9902    76438  204.46%
  16200   434    infeasible          12088.3315    36799.1156    78547  204.42%
  16854  1969    27578.1064    61    12088.3315    36776.6675    88238  204.23%
  19808  2567    16744.0629    49    12088.3315    36172.0106    92152  199.23%
  23169  5000    14467.1759    22    27006.8114    36066.6435   106689   33.55%
  26380  2582    27707.7367    86    27050.5878    35862.8613   121541   32.58%
  29368  6161    27518.9733    60    27050.5878    35648.0285   146946   31.78%
  32641  6502    27127.1098    44    27050.5878    35648.0285   148826   31.78%
Elapsed time = 81.33 sec. (23898.31 ticks, tree = 55.39 MB, solutions = 7)
  36056  8143    28096.1238    42    27050.5878    35648.0285   157395   31.78%
  39382 10668        cutoff          27050.5878    35648.0285   172814   31.78%
  42587 15568    29288.5792    58    27050.5878    35648.0285   206915   31.78%
  45481 12907    27259.1190    42    27050.5878    35648.0285   187259   31.78%
  47797 17064    29016.4860    33    29141.4834    33360.9915   216128   14.48%
  49981 16817    27282.3594    36    29141.4834    33360.9915   215800   14.48%
  51882 16289    27618.3067    41    29141.4834    33360.9915   211362   14.48%
  53685 15726    28061.8298    12    29141.4834    33360.9915   209919   14.48%
  55727  2497    29578.1294    46    29141.4834    33331.0251   217961   14.38%
  57872 16345    28359.8180    73    29141.4834    33331.0251   212326   14.38%
Elapsed time = 134.39 sec. (33439.09 ticks, tree = 169.03 MB, solutions = 10)
  59637 16543    29137.1394    35    29193.5157    33321.4338   213013   14.14%
  61400 15906    27135.1634    36    29193.5157    33321.4338   209217   14.14%
  63065 16655    28988.3662    35    29193.5157    33321.4338   213831   14.14%
  64596 16998    28352.4494    45    29193.5157    33321.4338   215227   14.14%
  65958  2664    29702.9033    37    29193.5157    33321.4338   223195   14.14%
  67320  2555    29510.3509    57    29193.5157    33283.0787   225516   14.01%
  68527 17490    27965.8311    30    29193.5157    33283.0787   219238   14.01%
  69617  2953    29721.0355    48    29193.5157    33283.0787   229523   14.01%
  70863  2530    29694.1565    39    29193.5157    33283.0787   220850   14.01%
  72127  3342    29357.8085    42    29193.5157    33283.0787   234764   14.01%
Elapsed time = 165.58 sec. (42982.60 ticks, tree = 25.37 MB, solutions = 11)
  73360  3230    29548.1792    56    29193.5157    29739.1409   230806    1.87%
  74751  3011    29411.6682    37    29193.5157    29739.1409   227802    1.87%
  76115  4890        cutoff          29193.5157    29739.1409   278606    1.87%
  77414  3621    29353.3485    48    29193.5157    29739.1409   236912    1.87%
  78552  5848    29322.7163    48    29193.5157    29739.1409   301873    1.87%
  79714 12997    29724.4452    37    29193.5157    29739.1409   389915    1.87%
  80761 13030    29699.6613    34    29193.5157    29733.9499   390429    1.85%
  81896 11732    29272.3128    77    29193.5157    29733.9499   381585    1.85%
  83280 11834    29346.4100    48    29193.5157    29733.9499   380562    1.85%
  84993 17883    29684.2906    39    29193.5157    29733.9499   439594    1.85%
Elapsed time = 243.95 sec. (52527.61 ticks, tree = 202.79 MB, solutions = 11)
  86783  5556    29669.6745    58    29193.5157    29733.0275   285725    1.85%
  88613 11993    29410.8661    41    29193.5157    29733.0275   381858    1.85%
  90689 25045    29691.6874    37    29193.5157    29733.0275   505734    1.85%
  92964 19617    29448.4033    34    29193.5157    29733.0275   456978    1.85%
  95364 12731    29418.4862    51    29193.5157    29733.0275   386880    1.85%
  97683 13501    29709.2647    35    29193.5157    29733.0275   394300    1.85%
 100061 14753    29350.4036    46    29193.5157    29733.0275   404129    1.85%
 102540 15455    29656.9706    40    29193.5157    29733.0275   416299    1.85%
 104965 16885        cutoff          29193.5157    29733.0275   426793    1.85%
 107442 19989    29370.2571    59    29193.5157    29733.0275   460082    1.85%
Elapsed time = 255.39 sec. (62067.62 ticks, tree = 229.78 MB, solutions = 11)
 109800 20073    29343.1935    38    29193.5157    29733.0275   460499    1.85%
 112128 27763    29648.7072    60    29193.5157    29733.0275   541023    1.85%
 114244 26283    29407.5174    32    29193.5157    29733.0275   521551    1.85%
 116303 23929    29316.1815    65    29193.5157    29733.0275   496707    1.85%
 118421 23016        cutoff          29193.5157    29733.0275   487449    1.85%
 120404 24030    29666.8560    60    29193.5157    29733.0275   497459    1.85%
 122467 27984    29259.4689    40    29193.5157    29733.0275   544282    1.85%
 124582 28023    29426.4522    34    29193.5157    29733.0275   544051    1.85%
 126331 24701    29444.0071    33    29193.5157    29733.0275   502328    1.85%
 127857 25337    29575.9940    34    29193.5157    29733.0275   509826    1.85%
Elapsed time = 265.75 sec. (71609.85 ticks, tree = 297.66 MB, solutions = 11)
 129280 27099    29646.6678    42    29193.5157    29733.0275   534009    1.85%
 130414 26993    29581.4743    37    29193.5157    29733.0275   530962    1.85%
 131248 27367        cutoff          29193.5157    29733.0275   535631    1.85%

GUB cover cuts applied:  1
Clique cuts applied:  29
Cover cuts applied:  4
Implied bound cuts applied:  24
Flow cuts applied:  299
Mixed integer rounding cuts applied:  27
Zero-half cuts applied:  1
Gomory fractional cuts applied:  58

Root node processing (before b&c):
  Real time             =   10.87 sec. (7369.59 ticks)
Parallel b&c, 32 threads:
  Real time             =  258.70 sec. (67647.75 ticks)
  Sync time (average)   =    1.38 sec.
  Wait time (average)   =    0.27 sec.
                          ------------
Total (root+branch&cut) =  269.58 sec. (75017.34 ticks)

Solution pool: 11 solutions saved.

MIP - Deterministic time limit exceeded, integer feasible:  Objective =  2.9193515689e+04
Current MIP best bound =  2.9721633502e+04 (gap = 528.118, 1.81%)
Solution time =  269.61 sec.  Iterations = 686551  Nodes = 131534 (41264)
Deterministic time = 75017.50 ticks  (278.24 ticks/sec)

CPLEX> Incumbent solution written to file 'C:\Users\llavin\Desktop\test919\logs\tmptp5y9iib.cplex.sol'.
CPLEX> Exporting results... 
